This is Ipopt version 3.14.16, running with linear solver MUMPS 5.7.3.

Number of nonzeros in equality constraint Jacobian...:        0
Number of nonzeros in inequality constraint Jacobian.:      988
Number of nonzeros in Lagrangian Hessian.............:        0

Total number of variables............................:       26
                     variables with only lower bounds:        0
                variables with lower and upper bounds:       26
                     variables with only upper bounds:        0
Total number of equality constraints.................:        0
Total number of inequality constraints...............:       38
        inequality constraints with only lower bounds:        0
   inequality constraints with lower and upper bounds:        0
        inequality constraints with only upper bounds:       38

iter    objective    inf_pr   inf_du lg(mu)  ||d||  lg(rg) alpha_du alpha_pr  ls
   0  6.4093661e-03 0.00e+00 9.96e-01   0.0 0.00e+00    -  0.00e+00 0.00e+00   0
   1  1.5479486e-02 0.00e+00 2.00e-01  -6.0 3.36e-02    -  9.53e-01 1.00e+00h  1
   2  1.3222810e-02 0.00e+00 1.18e-02  -3.0 1.77e-02    -  9.94e-01 1.00e+00h  1
   3  9.0208843e-03 0.00e+00 3.03e-02  -3.8 1.39e-02    -  1.00e+00 1.00e+00h  1
   4  6.8999999e-03 0.00e+00 5.55e-03  -5.3 1.95e-02    -  1.00e+00 1.00e+00h  1

Number of Iterations....: 4

                                   (scaled)                 (unscaled)
Objective...............:   6.8999998848911018e-03    6.8999998848911018e-03
Dual infeasibility......:   5.5508034363462681e-03    5.5508034363462681e-03
Constraint violation....:   0.0000000000000000e+00    0.0000000000000000e+00
Variable bound violation:   0.0000000000000000e+00    0.0000000000000000e+00
Complementarity.........:   9.9131304698042415e-05    9.9131304698042415e-05
Overall NLP error.......:   5.5508034363462681e-03    5.5508034363462681e-03


Number of objective function evaluations             = 5
Number of objective gradient evaluations             = 5
Number of equality constraint evaluations            = 0
Number of inequality constraint evaluations          = 5
Number of equality constraint Jacobian evaluations   = 0
Number of inequality constraint Jacobian evaluations = 5
Number of Lagrangian Hessian evaluations             = 0
Total seconds in IPOPT                               = 3.605

EXIT: Optimal Solution Found.
